************************************************************************
file with basedata            : md361_.bas
initial value random generator: 2054858986
************************************************************************
projects                      :  1
jobs (incl. supersource/sink ):  22
horizon                       :  168
RESOURCES
  - renewable                 :  2   R
  - nonrenewable              :  2   N
  - doubly constrained        :  0   D
************************************************************************
PROJECT INFORMATION:
pronr.  #jobs rel.date duedate tardcost  MPM-Time
    1     20      0       23        3       23
************************************************************************
PRECEDENCE RELATIONS:
jobnr.    #modes  #successors   successors
   1        1          3           2   3   4
   2        3          1          20
   3        3          3           8  13  15
   4        3          3           5   7  10
   5        3          2           6  12
   6        3          3           9  13  14
   7        3          1          21
   8        3          2           9  16
   9        3          3          11  17  18
  10        3          3          11  12  16
  11        3          1          19
  12        3          2          13  14
  13        3          2          18  19
  14        3          1          15
  15        3          2          17  21
  16        3          2          17  19
  17        3          1          20
  18        3          2          20  21
  19        3          1          22
  20        3          1          22
  21        3          1          22
  22        1          0        
************************************************************************
REQUESTS/DURATIONS:
jobnr. mode duration  R 1  R 2  N 1  N 2
------------------------------------------------------------------------
  1      1     0       0    0    0    0
  2      1     4       8    0    5    7
         2     7       5    0    4    5
         3     8       4    0    3    2
  3      1     6       9    0    6    8
         2     7       8    0    5    8
         3    10       0    5    2    8
  4      1     2       0    5    8    1
         2     2       8    0    8    1
         3     9       6    0    4    1
  5      1     2       6    0    9    7
         2     4       5    0    5    5
         3     5       3    0    5    5
  6      1     1       3    0    8    6
         2     7       3    0    6    6
         3     7       0    7    6    6
  7      1     6       5    0   10    9
         2     8       4    0    9    8
         3     9       0    4    8    7
  8      1     5       9    0    7   10
         2     6       0    4    6    7
         3    10       9    0    2    6
  9      1     1       0    9   10    2
         2     2       4    0    9    2
         3     2       0    4    9    1
 10      1     5       4    0    4    4
         2     9       0    8    4    4
         3    10       4    0    2    3
 11      1     2       0    4    4    9
         2     8       0    1    4    6
         3     9       6    0    3    5
 12      1     2       4    0    9    5
         2     5       3    0    7    4
         3     8       0    8    7    4
 13      1     2       0    8    6    9
         2     3       0    7    5    6
         3     7       8    0    4    4
 14      1     1       4    0    4    8
         2     4       3    0    3    8
         3     8       2    0    3    5
 15      1     7       0    6    1    8
         2    10       9    0    1    4
         3    10       3    0    1    6
 16      1     1       0    6    9    8
         2     9       4    0    8    8
         3    10       0    6    7    7
 17      1     4       0    8    8    5
         2     7       8    0    6    5
         3    10       8    0    3    5
 18      1     2       6    0    7    7
         2     3       0    5    6    7
         3     8       0    3    5    7
 19      1     8       0    5   10    3
         2    10       0    3    6    1
         3    10       0    2    6    2
 20      1     2       0    6    6    9
         2     6       0    4    5    8
         3    10       9    0    3    8
 21      1     2       8    0    9    5
         2     4       8    0    5    4
         3     8       7    0    3    1
 22      1     0       0    0    0    0
************************************************************************
RESOURCEAVAILABILITIES:
  R 1  R 2  N 1  N 2
   13    8  113  110
************************************************************************
MAXIMAL LAGS:
from  to  type  delay
    1   12   ES      0
    1    2   ES      0
    2   12   ES      0
    1    3   ES      0
    3   12   ES      0
    1    4   ES      0
    4   12   ES      0
    1    5   ES      0
    5   12   ES      0
    1    6   ES      0
    6   12   ES      0
    1    7   ES      0
    7   12   ES      0
    1    8   ES      0
    8   12   ES      0
    1    9   ES      0
    9   12   ES      0
    1   10   ES      0
   10   12   ES      0
    1   11   ES      0
   11   12   ES      0
    1   12   ES      0
    2   20   SS    -12
    2   20   SE     -2
    2   20   ES      5
    2   20   EE      3
    3    8   SS      3
    3    8   SE    -10
    3    8   ES     -2
    3    8   EE     -2
    3   13   SS     10
    3   13   SE     -1
    3   13   ES      7
    3   13   EE      9
    3   15   SS      9
    3   15   SE     10
    3   15   ES    -11
    3   15   EE     12
    4    5   SS      8
    4    5   SE      0
    4    5   ES     10
    4    5   EE     -7
    4    7   SS     12
    4    7   SE      3
    4    7   ES      4
    4    7   EE      3
    4   10   SS      7
    4   10   SE    -11
    4   10   ES     -7
    4   10   EE     -1
    5    6   SS      6
    5    6   SE     -9
    5    6   ES     10
    5    6   EE     -8
    6    9   SS    -12
    6    9   SE     10
    6    9   ES     11
    6    9   EE     -4
    6   13   SS      0
    6   13   SE     -5
    6   13   ES      2
    6   13   EE     -7
    6   14   SS     -9
    6   14   SE      1
    6   14   ES     -7
    6   14   EE     11
    7   21   SS      0
    7   21   SE      0
    7   21   ES     11
    7   21   EE    -12
    8    9   SS     -6
    8    9   SE     -8
    8    9   ES     -6
    8    9   EE     -2
    8   16   SS      4
    8   16   SE     -3
    8   16   ES    -10
    8   16   EE      5
    9   11   SS    -12
    9   11   SE     -7
    9   11   ES      7
    9   11   EE     -2
    9   17   SS     -1
    9   17   SE      9
    9   17   ES      7
    9   17   EE      6
    9   18   SS      6
    9   18   SE      3
    9   18   ES      2
    9   18   EE     12
   10   11   SS     -5
   10   11   SE     11
   10   11   ES      2
   10   11   EE      6
   10   16   SS     -6
   10   16   SE      7
   10   16   ES     -1
   10   16   EE      3
   11   19   SS      6
   11   19   SE     -2
   11   19   ES     12
   11   19   EE     -1
   12   13   SS    -10
   12   13   SE      6
   12   13   ES      8
   12   13   EE     -8
   12   14   SS     -4
   12   14   SE     11
   12   14   ES      2
   12   14   EE     -4
   13   18   SS      9
   13   18   SE    -10
   13   18   ES    -10
   13   18   EE    -10
   13   19   SS      3
   13   19   SE      9
   13   19   ES     -6
   13   19   EE      0
   14   15   SS      2
   14   15   SE    -12
   14   15   ES     -6
   14   15   EE     10
   15   17   SS      4
   15   17   SE      1
   15   17   ES     -8
   15   17   EE     -1
   15   21   SS      0
   15   21   SE      8
   15   21   ES      2
   15   21   EE      1
   16   17   SS     -9
   16   17   SE     -9
   16   17   ES     -7
   16   17   EE     -1
   16   19   SS      5
   16   19   SE     -3
   16   19   ES     11
   16   19   EE     -7
   17   20   SS     -6
   17   20   SE     -6
   17   20   ES    -12
   17   20   EE    -12
   18   20   SS      5
   18   20   SE    -11
   18   20   ES     -1
   18   20   EE      0
   18   21   SS     -5
   18   21   SE    -11
   18   21   ES     11
   18   21   EE      4
   19   22   SS     10
   19   22   SE     -8
   19   22   ES      6
   19   22   EE     -7
   20   22   SS      8
   20   22   SE     -4
   20   22   ES      8
   20   22   EE      5
   21   22   SS     -8
   21   22   SE      4
   21   22   ES      2
   21   22   EE     -5
************************************************************************
